Mack/Bortfeldt(2008)
Bin-Packing-Problem
BP-RG/SBSBPP/SSSCSP
Testcase-ID	3
Problem-ID	50
no_item_types	12
no_items	1415
CONTAINER_DATA (l,w,h)	485	131	118
ITEMS_DATA:
Type	x	y	z	no_items
1	102	96	59	117
2	95	76	60	117
3	99	90	32	115
4	109	63	28	134
5	64	60	47	115
6	80	52	42	117
7	74	64	35	118
8	68	66	31	123
9	120	34	26	111
10	61	47	34	107
11	53	45	36	115
12	53	40	36	126
